8848
7913
9314
10714
8838
7777
9488
11088
8462
7617
8932
10132
8252
7137
8808
10408
8227
7125
8886
10486
8068
7092
8746
10273
11630
10771
12322
13722
12371
11331
13331
15331
11629
10632
12232
13832
11258
10551
11824
13024
6589
5663
5214
7028
6251
5651
6228
5596
5302
8741
7414
9178
8531
8777
7654
21103
26039
37239
27282
20534
24454
32643
25105
20530
24445
31415
24848
20538
24532
32321
25540
